\ Model Routes
\ LP format - for model browsing. Use MPS format to capture full model detail.
Maximize
  - 191.7153353028244 R{0,0} + 210.7736552982703 R{0,1}
   + 210.7736552982703 R{0,2} - 249.2301939667805 R{0,3}
   - 223.5191598158195 R{0,4} + 876.4702428658231 R{0,5}
   + 876.4702428658231 R{0,6} + 155.7970287393723 R{0,7}
   + 893.5411057782039 R{0,8} + 629.9912055958446 R{0,9}
   + 454.2311365706167 R{0,10} + 1207.490812748265 R{0,11}
   + 540.4915003408768 R{0,12} - 256.140831891889 R{1,0}
   + 216.3226429839851 R{1,1} + 843.8103196491563 R{1,2}
   + 1302.737754410393 R{1,3} + 880.734919383729 R{1,4}
   + 783.2862193360936 R{1,5} + 1002.430958664093 R{1,6}
   + 873.6597842033982 R{1,7} + 732.8726248619259 R{1,8}
   + 348.558795158162 R{1,9} + 662.2378561935468 R{1,10}
   + 353.8960367051475 R{1,11} + 306.8144864253746 R{1,12}
   + 786.4502483187185 R{2,0} + 786.4502483187185 R{2,1}
   - 278.4443928850388 R{2,2} + 96.64804243541232 R{2,3}
   + 1215.70742910273 R{2,4} + 420.034065802254 R{2,5}
   + 361.7358528934409 R{2,6} + 462.2985486765674 R{2,7}
   + 255.15640625869 R{2,8} - 260.2482995389823 R{3,0}
   + 522.4398281754088 R{3,1} + 1230.485940651614 R{3,2}
   + 643.6066394260856 R{3,3} + 962.4890406910824 R{3,4}
   + 1272.973169451991 R{3,5} + 992.010896054818 R{3,6}
   + 755.5407054555297 R{3,7} + 1256.328272092243 R{3,8}
   + 484.2595398142357 R{3,9} + 919.2734075968306 R{3,10}
   - 242.5208875955131 R{4,0} + 1066.379443184683 R{4,1}
   + 1576.196574514046 R{4,2} + 1402.772674449751 R{4,3}
   + 1529.283360765447 R{4,4} + 1047.615232622237 R{4,5}
   + 1234.639477099264 R{4,6} + 1883.500654654637 R{4,7}
   + 1609.470478837205 R{4,8} - 231.9775664337766 R{5,0}
   + 18.73641143601708 R{5,1} + 603.2006328252955 R{5,2}
   + 214.0296929545386 R{5,3} + 186.3141951123596 R{5,4}
   + 351.4437673437736 R{5,5} + 83.09089472011084 R{5,6}
   - 101.7721346393114 R{5,7} + 374.3943255652717 R{5,8}
   + 40.32597875786729 R{5,9} - 8.540204689658196 R{5,10}
   + 513.3577039609318 R{5,11} - 231.1436095783099 R{6,0}
   + 1370.402709432251 R{6,1} + 2203.660382897198 R{6,2}
   + 2135.827740052187 R{6,3} + 2067.9001073854 R{6,4}
   + 1618.184523031194 R{6,5} + 1513.741859677905 R{6,6}
   + 577.951501647617 R{6,7} + 2069.409788549962 R{6,8}
   + 1215.727857983564 R{6,9} + 2096.417028650805 R{6,10}
   + 1326.382235964068 R{6,11} + 1783.288995054366 R{6,12}
   + 2146.195410536578 R{6,13} + 1542.700377664966 R{6,14}
   + 1603.782353582127 R{6,15} + 1446.272103445258 R{6,16}
Subject To
 R00: R{0,0} <= 1
 R01: R{0,1} <= 1
 R02: R{0,2} <= 1
 R03: R{0,3} <= 1
 R04: R{0,4} <= 1
 R05: R{0,5} <= 1
 R06: R{0,6} <= 1
 R07: R{0,7} <= 1
 R08: R{0,8} <= 1
 R09: R{0,9} <= 1
 R010: R{0,10} <= 1
 R011: R{0,11} <= 1
 R012: R{0,12} <= 1
 R013: R{1,0} <= 1
 R014: R{1,1} <= 1
 R015: R{1,2} <= 1
 R016: R{1,3} <= 1
 R017: R{1,4} <= 1
 R018: R{1,5} <= 1
 R019: R{1,6} <= 1
 R020: R{1,7} <= 1
 R021: R{1,8} <= 1
 R022: R{1,9} <= 1
 R023: R{1,10} <= 1
 R024: R{1,11} <= 1
 R025: R{1,12} <= 1
 R026: R{2,0} <= 1
 R027: R{2,1} <= 1
 R028: R{2,2} <= 1
 R029: R{2,3} <= 1
 R030: R{2,4} <= 1
 R031: R{2,5} <= 1
 R032: R{2,6} <= 1
 R033: R{2,7} <= 1
 R034: R{2,8} <= 1
 R035: R{3,0} <= 1
 R036: R{3,1} <= 1
 R037: R{3,2} <= 1
 R038: R{3,3} <= 1
 R039: R{3,4} <= 1
 R040: R{3,5} <= 1
 R041: R{3,6} <= 1
 R042: R{3,7} <= 1
 R043: R{3,8} <= 1
 R044: R{3,9} <= 1
 R045: R{3,10} <= 1
 R046: R{4,0} <= 1
 R047: R{4,1} <= 1
 R048: R{4,2} <= 1
 R049: R{4,3} <= 1
 R050: R{4,4} <= 1
 R051: R{4,5} <= 1
 R052: R{4,6} <= 1
 R053: R{4,7} <= 1
 R054: R{4,8} <= 1
 R055: R{5,0} <= 1
 R056: R{5,1} <= 1
 R057: R{5,2} <= 1
 R058: R{5,3} <= 1
 R059: R{5,4} <= 1
 R060: R{5,5} <= 1
 R061: R{5,6} <= 1
 R062: R{5,7} <= 1
 R063: R{5,8} <= 1
 R064: R{5,9} <= 1
 R065: R{5,10} <= 1
 R066: R{5,11} <= 1
 R067: R{6,0} <= 1
 R068: R{6,1} <= 1
 R069: R{6,2} <= 1
 R070: R{6,3} <= 1
 R071: R{6,4} <= 1
 R072: R{6,5} <= 1
 R073: R{6,6} <= 1
 R074: R{6,7} <= 1
 R075: R{6,8} <= 1
 R076: R{6,9} <= 1
 R077: R{6,10} <= 1
 R078: R{6,11} <= 1
 R079: R{6,12} <= 1
 R080: R{6,13} <= 1
 R081: R{6,14} <= 1
 R082: R{6,15} <= 1
 R083: R{6,16} <= 1
 R1_0: R{0,0} + R{0,1} + R{0,2} + R{0,3} + R{0,4} + R{0,5} + R{0,6}
   + R{0,7} + R{0,8} + R{0,9} + R{0,10} + R{0,11} + R{0,12} <= 1
 R1_1: R{1,0} + R{1,1} + R{1,2} + R{1,3} + R{1,4} + R{1,5} + R{1,6}
   + R{1,7} + R{1,8} + R{1,9} + R{1,10} + R{1,11} + R{1,12} <= 1
 R1_2: R{2,0} + R{2,1} + R{2,2} + R{2,3} + R{2,4} + R{2,5} + R{2,6}
   + R{2,7} + R{2,8} <= 1
 R1_3: R{3,0} + R{3,1} + R{3,2} + R{3,3} + R{3,4} + R{3,5} + R{3,6}
   + R{3,7} + R{3,8} + R{3,9} + R{3,10} <= 1
 R1_4: R{4,0} + R{4,1} + R{4,2} + R{4,3} + R{4,4} + R{4,5} + R{4,6}
   + R{4,7} + R{4,8} <= 1
 R1_5: R{5,0} + R{5,1} + R{5,2} + R{5,3} + R{5,4} + R{5,5} + R{5,6}
   + R{5,7} + R{5,8} + R{5,9} + R{5,10} + R{5,11} <= 1
 R1_6: R{6,0} + R{6,1} + R{6,2} + R{6,3} + R{6,4} + R{6,5} + R{6,6}
   + R{6,7} + R{6,8} + R{6,9} + R{6,10} + R{6,11} + R{6,12} + R{6,13}
   + R{6,14} + R{6,15} + R{6,16} <= 1
 R2_0: <= 0
 R2_1: 10 R{0,11} + 10 R{0,12} + 10 R{3,1} + 10 R{3,2} + 10 R{3,4}
   + 10 R{3,5} + 10 R{3,7} + 10 R{3,8} + 10 R{3,9} + 10 R{3,10} + 10 R{5,4}
   + 10 R{5,9} + 10 R{6,5} + 10 R{6,15} <= 10
 R2_2: <= 0
 R2_3: 4 R{0,4} + 4 R{0,5} + 4 R{0,6} + 4 R{0,8} + 4 R{0,9} + 4 R{0,10}
   + 4 R{0,11} <= 4
 R2_4: <= 0
 R2_5: 5 R{0,4} + 5 R{0,5} + 5 R{0,6} <= 5
 R2_6: 10 R{1,1} + 10 R{1,2} + 10 R{1,3} + 10 R{1,4} + 10 R{1,5}
   + 10 R{1,7} + 10 R{1,8} + 10 R{1,11} + 10 R{4,7} + 10 R{5,6}
   + 10 R{5,10} + 10 R{6,16} <= 10
 R2_7: 6 R{1,1} <= 6
 R2_8: <= 0
 R2_9: 12 R{4,1} + 12 R{4,2} + 12 R{4,3} + 12 R{4,4} + 12 R{4,6}
   + 12 R{6,14} <= 12
 R2_10: 8 R{6,1} + 8 R{6,2} + 8 R{6,4} <= 8
 R2_11: <= 0
 R2_12: <= 0
 R2_13: <= 0
 R2_14: <= 0
 R2_15: 11 R{0,0} + 11 R{0,1} + 11 R{0,2} + 11 R{4,1} + 11 R{4,2}
   + 11 R{4,5} + 11 R{4,6} <= 11
 R2_16: <= 0
 R2_17: 11 R{6,16} <= 11
 R2_18: <= 0
 R2_19: 11 R{0,8} + 11 R{4,1} + 11 R{4,2} + 11 R{4,3} + 11 R{4,4}
   + 11 R{4,5} + 11 R{5,3} + 11 R{5,8} <= 11
 R2_20: 13 R{0,9} + 13 R{1,7} + 13 R{2,4} + 13 R{3,6} + 13 R{3,7}
   + 13 R{6,1} + 13 R{6,2} + 13 R{6,3} + 13 R{6,4} + 13 R{6,8} + 13 R{6,9}
   + 13 R{6,10} + 13 R{6,11} + 13 R{6,12} + 13 R{6,13} + 13 R{6,14} <= 13
 R2_21: <= 0
 R2_22: <= 0
 R2_23: 14 R{0,1} + 14 R{0,2} + 14 R{0,7} + 14 R{2,0} + 14 R{2,1}
   + 14 R{2,5} + 14 R{2,6} + 14 R{2,7} + 14 R{4,4} + 14 R{6,2} + 14 R{6,3}
   + 14 R{6,4} + 14 R{6,6} + 14 R{6,8} + 14 R{6,12} + 14 R{6,14} <= 14
 R2_24: 10 R{1,9} + 10 R{3,1} + 10 R{3,2} + 10 R{3,3} + 10 R{3,4}
   + 10 R{3,6} + 10 R{3,7} + 10 R{3,10} <= 10
 R2_25: 13 R{4,1} + 13 R{4,2} + 13 R{4,3} + 13 R{4,4} + 13 R{4,5}
   + 13 R{4,6} + 13 R{4,7} + 13 R{6,5} + 13 R{6,15} <= 13
 R2_26: 6 R{2,4} + 6 R{2,8} + 6 R{5,1} + 6 R{5,2} + 6 R{5,4} + 6 R{5,5}
   + 6 R{5,8} + 6 R{5,11} <= 6
 R2_27: 5 R{0,5} + 5 R{0,6} + 5 R{0,9} + 5 R{0,11} + 5 R{0,12} + 5 R{1,3}
   + 5 R{1,5} + 5 R{1,7} + 5 R{1,8} + 5 R{1,12} + 5 R{3,4} + 5 R{3,5}
   + 5 R{3,6} + 5 R{3,8} + 5 R{3,10} + 5 R{4,7} + 5 R{4,8} + 5 R{5,5}
   + 5 R{5,11} + 5 R{6,1} + 5 R{6,2} + 5 R{6,3} + 5 R{6,4} + 5 R{6,5}
   + 5 R{6,10} + 5 R{6,11} + 5 R{6,13} + 5 R{6,15} <= 5
 R2_28: <= 0
 R2_29: <= 0
 R2_30: <= 0
 R2_31: <= 0
 R2_32: 7 R{0,12} + 7 R{2,3} + 7 R{5,7} <= 7
 R2_33: 12 R{1,5} + 12 R{1,9} + 12 R{4,8} <= 12
 R2_34: 5 R{6,5} + 5 R{6,15} + 5 R{6,16} <= 5
 R2_35: <= 0
 R2_36: <= 0
 R2_37: 5 R{3,1} + 5 R{3,2} + 5 R{3,3} + 5 R{3,4} + 5 R{3,8} + 5 R{3,9}
   + 5 R{3,10} <= 5
 R2_38: <= 0
 R2_39: <= 0
 R2_40: 15 R{2,3} + 15 R{2,4} + 15 R{2,8} <= 15
 R2_41: 5 R{1,6} + 5 R{3,3} + 5 R{4,3} + 5 R{6,4} + 5 R{6,13} + 5 R{6,16}
   <= 5
 R2_42: 4 R{2,3} <= 4
 R2_43: <= 0
 R2_44: <= 0
 R2_45: <= 0
 R2_46: 9 R{4,7} + 9 R{4,8} + 9 R{6,10} + 9 R{6,13} <= 9
 R2_47: 7 R{5,1} + 7 R{5,2} + 7 R{5,3} + 7 R{5,5} + 7 R{5,9} <= 7
 R2_48: 4 R{4,1} + 4 R{4,2} + 4 R{4,3} + 4 R{4,4} + 4 R{4,5} + 4 R{4,6}
   <= 4
 R2_49: <= 0
 R2_50: <= 0
 R2_51: 11 R{1,12} + 11 R{4,1} + 11 R{4,3} + 11 R{4,4} + 11 R{4,7}
   + 11 R{4,8} <= 11
 R2_52: 10 R{4,7} + 10 R{4,8} <= 10
 R2_53: 13 R{4,1} + 13 R{4,2} + 13 R{4,4} + 13 R{4,5} + 13 R{4,6} <= 13
 R2_54: 9 R{3,1} + 9 R{3,2} + 9 R{3,3} + 9 R{3,4} + 9 R{3,5} + 9 R{3,6}
   + 9 R{3,9} + 9 R{3,10} <= 9
 R2_55: 8 R{6,1} + 8 R{6,2} + 8 R{6,3} + 8 R{6,6} + 8 R{6,7} + 8 R{6,8}
   + 8 R{6,9} + 8 R{6,10} + 8 R{6,11} + 8 R{6,12} + 8 R{6,13} + 8 R{6,14}
   <= 8
 R2_56: 6 R{2,0} + 6 R{2,1} + 6 R{6,2} + 6 R{6,3} + 6 R{6,5} + 6 R{6,6}
   + 6 R{6,8} + 6 R{6,10} + 6 R{6,12} + 6 R{6,13} <= 6
 R2_57: <= 0
 R2_58: <= 0
 R2_59: 10 R{4,7} + 10 R{4,8} + 10 R{6,5} + 10 R{6,6} + 10 R{6,7}
   + 10 R{6,15} <= 10
 R2_60: <= 0
 R2_61: 9 R{2,5} + 9 R{2,7} + 9 R{4,5} + 9 R{4,7} + 9 R{4,8} + 9 R{6,7}
   + 9 R{6,9} + 9 R{6,15} + 9 R{6,16} <= 9
 R2_62: <= 0
 R2_63: <= 0
 R2_64: <= 0
 R2_65: 5 R{2,0} + 5 R{2,1} + 5 R{2,6} + 5 R{6,1} + 5 R{6,2} + 5 R{6,3}
   + 5 R{6,4} + 5 R{6,6} + 5 R{6,7} + 5 R{6,9} + 5 R{6,10} + 5 R{6,11}
   + 5 R{6,12} + 5 R{6,14} <= 5
 R2_66: 7 R{1,8} + 7 R{1,10} + 7 R{1,11} + 7 R{5,11} + 7 R{6,1} + 7 R{6,2}
   + 7 R{6,3} + 7 R{6,4} + 7 R{6,5} + 7 R{6,6} + 7 R{6,9} + 7 R{6,10}
   + 7 R{6,11} + 7 R{6,12} + 7 R{6,13} + 7 R{6,14} + 7 R{6,15} <= 7
 R2_67: <= 3
 R2_68: 6 R{1,1} + 6 R{1,2} + 6 R{1,3} + 6 R{1,4} + 6 R{1,5} + 6 R{1,6}
   + 6 R{1,8} + 6 R{1,9} + 6 R{6,16} <= 6
 R2_69: 7 R{2,8} + 7 R{3,9} + 7 R{4,1} + 7 R{4,2} + 7 R{4,3} + 7 R{4,4}
   + 7 R{4,5} + 7 R{4,6} + 7 R{6,16} <= 7
 R2_70: 11 R{1,1} + 11 R{1,2} + 11 R{1,3} <= 11
 R2_71: 7 R{1,11} + 7 R{6,1} + 7 R{6,2} + 7 R{6,3} + 7 R{6,4} + 7 R{6,6}
   + 7 R{6,8} + 7 R{6,9} + 7 R{6,10} + 7 R{6,11} + 7 R{6,12} + 7 R{6,13}
   + 7 R{6,14} <= 7
 R2_72: <= 0
 R2_73: <= 0
 R2_74: 5 R{5,1} + 5 R{5,3} + 5 R{5,6} + 5 R{5,8} <= 5
 R2_75: 8 R{6,1} + 8 R{6,2} + 8 R{6,3} + 8 R{6,4} + 8 R{6,8} + 8 R{6,9}
   + 8 R{6,10} + 8 R{6,11} + 8 R{6,12} + 8 R{6,14} <= 8
 R2_76: <= 12
 R2_77: 7 R{0,5} + 7 R{0,6} + 7 R{0,8} + 7 R{0,10} + 7 R{0,11} + 7 R{1,2}
   + 7 R{1,3} + 7 R{1,4} + 7 R{1,6} + 7 R{1,10} + 7 R{2,4} + 7 R{3,2}
   + 7 R{3,5} + 7 R{3,8} + 7 R{4,2} + 7 R{4,6} + 7 R{5,2} + 7 R{6,8} <= 7
Bounds
End
